NAME: tsp35_2
COMMENT: 35-tsp problem (Padberg/Rinaldi)
TYPE: TSP
DIMENSION: 35
EDGE_WEIGHT_TYPE : EUC_2D
NODE_COORD_SECTION
1 33 35
2 38 6
3 34 33
4 37 26
5 40 9
6 15 1
7 6 36
8 5 38
9 37 9
10 6 23
11 34 15
12 36 7
13 16 23
14 36 3
15 19 3
16 9 20
17 31 24
18 28 19
19 27 5
20 13 4
21 11 11
22 4 1
23 38 26
24 12 16
25 13 28
26 29 10
27 18 16
28 20 34
29 25 20
30 37 33
31 26 20
32 39 38
33 30 12
34 21 18
35 25 25
